# Solution for model qis_1000_800_723
# Objective value = 2.9926678787292690e+02
x[0] 0
x[1] 0
x[2] 0
x[3] 1
x[4] 0
x[5] 0.9999999
x[6] 0
x[7] 0
x[8] 0
x[9] 1
x[10] 1
x[11] 1
x[12] 0
x[13] -2.4999999642476484e-08
x[14] 0
x[15] 0
x[16] 9.9951854724608821e-08
x[17] 1
x[18] 9.9320916770004750e-09
x[19] 0
x[20] 0
x[21] 1
x[22] 1
x[23] 1.0000001998572234e+00
x[24] 0
x[25] 0
x[26] 0
x[27] 1
x[28] 1
x[29] 1.0000000249549215e+00
x[30] 1
x[31] 1
x[32] 9.9339335810043152e-09
x[33] 0
x[34] 1
x[35] 1
x[36] 0
x[37] 0
x[38] 0
x[39] 1
x[40] 0
x[41] 0
x[42] 1
x[43] 1
x[44] 1
x[45] 1.0000000149416894e+00
x[46] -2.1666666886031956e-08
x[47] 1
x[48] -4.2166666605433649e-07
x[49] 0
x[50] 0
x[51] 0
x[52] 1
x[53] 1.0000001898688136e+00
x[54] 0
x[55] 0
x[56] 1
x[57] 1
x[58] 0
x[59] 1
x[60] 1
x[61] 1.0000000248950374e+00
x[62] 0
x[63] 1
x[64] 0
x[65] 9.9999991499999841e-01
x[66] 0
x[67] 0
x[68] 1
x[69] 0
x[70] 0
x[71] 1
x[72] 1
x[73] 1
x[74] 1.0000000499239592e+00
x[75] 0
x[76] 1
x[77] 0
x[78] 0
x[79] 0
x[80] -2.4999999834772753e-08
x[81] -4.0666666611065803e-07
x[82] 1
x[83] 1
x[84] 0
x[85] 0
x[86] 0
x[87] 1
x[88] 9.9999982500000018e-01
x[89] 1
x[90] 1
x[91] 1.9992313759090805e-07
x[92] 1
x[93] 0
x[94] 1
x[95] 0
x[96] 1
x[97] 1
x[98] 1
x[99] 0
x[100] 0
x[101] 1.4994827469126992e-07
x[102] 1
x[103] 0
x[104] 0
x[105] 0
x[106] 0
x[107] 1.0000001749375571e+00
x[108] 0
x[109] 1
x[110] 1
x[111] 1
x[112] -2.1666667078328225e-08
x[113] 1
x[114] 1
x[115] 9.9999990333333344e-01
x[116] 1
x[117] 0
x[118] 1.0000001639473750e+00
x[119] -1.7166666627926102e-07
x[120] 0
x[121] 1
x[122] 0
x[123] 1
x[124] 0
x[125] 0
x[126] 1
x[127] 0
x[128] 1
x[129] 0
x[130] 0
x[131] 0
x[132] 0
x[133] 1
x[134] 0
x[135] 1.0000000249240124e+00
x[136] 1
x[137] 1
x[138] 1.0000000249268235e+00
x[139] 0
x[140] 0
x[141] 0
x[142] 0
x[143] 1.0000001899126854e+00
x[144] 1.0000004099556499e+00
x[145] 0.999999855
x[146] 0
x[147] 0
x[148] 9.9999985333333341e-01
x[149] 1
x[150] 0
x[151] 9.9999987833333348e-01
x[152] 0
x[153] 1
x[154] 0
x[155] -2.5000000292152436e-08
x[156] 1
x[157] 1
x[158] 0
x[159] 1
x[160] -2.7166666654967438e-07
x[161] 1
x[162] 0
x[163] 0
x[164] 0
x[165] 1.0000000249385130e+00
x[166] 1
x[167] 1
x[168] 0
x[169] 0
x[170] 1
x[171] 0
x[172] 1
x[173] 1
x[174] 1
x[175] 0
x[176] 1.0000000249446375e+00
x[177] 0
x[178] 0
x[179] 1
x[180] 0
x[181] 1
x[182] 1
x[183] 1.0000000249385015e+00
x[184] 1
x[185] 1
x[186] -4.0999999944399142e-07
x[187] 1
x[188] 0
x[189] 0
x[190] 1
x[191] 1
x[192] 1
x[193] 1
x[194] 1
x[195] 1.7247290260666494e-08
x[196] 1
x[197] 0
x[198] 2.0275464529610475e-07
x[199] 1
x[200] 1
x[201] 0
x[202] 0
x[203] 1
x[204] 1
x[205] 1
x[206] 1
x[207] 0
x[208] 1
x[209] -4.2499999919343178e-07
x[210] 1
x[211] 0
x[212] 1
x[213] 1
x[214] 0
x[215] 0
x[216] 1
x[217] 9.9918122095519351e-08
x[218] 0
x[219] 1
x[220] 1
x[221] 1
x[222] 1
x[223] 2.6873661002502781e-07
x[224] 1
x[225] 1
x[226] 0
x[227] 0
x[228] 0
x[229] 0
x[230] 0
x[231] 1
x[232] 1
x[233] 0
x[234] 0
x[235] 0
x[236] 0
x[237] 0
x[238] 1
x[239] 0
x[240] 1
x[241] 1.2490767203039075e-07
x[242] 1.0000000149580854e+00
x[243] 1
x[244] 0
x[245] 1
x[246] 0
x[247] 0
x[248] 1
x[249] 1
x[250] 0
x[251] 9.99493093954975e-08
x[252] 0
x[253] 0
x[254] 0
x[255] 9.9999990333333344e-01
x[256] 1
x[257] 1
x[258] 0
x[259] 1
x[260] 1
x[261] 1
x[262] 0
x[263] 1
x[264] 0
x[265] 1
x[266] 1
x[267] 0
x[268] 0
x[269] 0
x[270] 1
x[271] 0
x[272] 9.9945609704624658e-08
x[273] 1
x[274] 0
x[275] 0
x[276] 1
x[277] -5.0000000362260279e-08
x[278] 0
x[279] 0
x[280] 0
x[281] 0
x[282] 1
x[283] 0
x[284] 1
x[285] 1
x[286] 1
x[287] 0
x[288] 0
x[289] 0
x[290] 1
x[291] 1.0000000499539303e+00
x[292] 0
x[293] 1
x[294] 2.6877465109609782e-07
x[295] 2.0728550511930983e-07
x[296] 0
x[297] 1
x[298] 0
x[299] 0
x[300] 0
x[301] 1
x[302] 0
x[303] 0
x[304] 9.9946386446798972e-08
x[305] 1
x[306] 1
x[307] 1.2489769916374942e-07
x[308] 1
x[309] 1
x[310] 1
x[311] 0
x[312] 0
x[313] 1.0000000063357348e+00
x[314] 0
x[315] 0
x[316] 0
x[317] 1
x[318] 1
x[319] 1.0000001749444785e+00
x[320] 1.4990872459905121e-07
x[321] 1
x[322] 0
x[323] 1.4995834644134197e-07
x[324] 9.9999968599999944e-01
x[325] 1
x[326] 1
x[327] 9.9999990333333388e-01
x[328] 1
x[329] 0
x[330] 1.0000001749445606e+00
x[331] 1
x[332] 1
x[333] 0
x[334] 0
x[335] 9.9999990000000050e-01
x[336] 1
x[337] 0
x[338] 0
x[339] 0
x[340] 0
x[341] 1
x[342] 0
x[343] 0
x[344] 1
x[345] 0
x[346] 1
x[347] 1
x[348] 9.4657197797294413e-09
x[349] 1
x[350] 1
x[351] 1.2492925613280264e-07
x[352] 0
x[353] 9.7409956865783589e-09
x[354] 0
x[355] -1.3999999981530265e-07
x[356] 0
x[357] 1
x[358] 0
x[359] -1.5000000054700668e-08
x[360] 1.0000000249605863e+00
x[361] 1.0000001749070531e+00
x[362] 1
x[363] 1
x[364] 1
x[365] 0.99999985
x[366] 0
x[367] 0
x[368] 0
x[369] 1
x[370] 0
x[371] 1
x[372] 1
x[373] 0
x[374] 1
x[375] -2.1604224540119884e-08
x[376] 0
x[377] 1.9976355898645761e-07
x[378] 0
x[379] 0
x[380] 1
x[381] 0
x[382] 1
x[383] 1
x[384] 1
x[385] 0
x[386] -1.4999999957669724e-07
x[387] 9.9999990338402389e-01
x[388] 1
x[389] 1
x[390] 1
x[391] 1.0000000249031424e+00
x[392] 0
x[393] 1
x[394] 1
x[395] 1
x[396] 1
x[397] 1
x[398] 0
x[399] 9.9325621815375584e-09
x[400] 1
x[401] 1
x[402] 0
x[403] 0
x[404] -1.4499999954799142e-07
x[405] 0
x[406] 0
x[407] 1.0000004099319146e+00
x[408] 1
x[409] 0
x[410] 1.2495676656287033e-07
x[411] 1
x[412] 0
x[413] 0
x[414] 1
x[415] -4.2166666905193856e-07
x[416] 1
x[417] 0
x[418] 0
x[419] 0
x[420] 1
x[421] 1
x[422] 0
x[423] 0
x[424] 1
x[425] 1
x[426] 0
x[427] 1
x[428] 0
x[429] 0
x[430] 1.0000004249511458e+00
x[431] -1.8653548023172189e-07
x[432] 1.0000004248725214e+00
x[433] 0
x[434] 1
x[435] 1
x[436] 0
x[437] 1
x[438] 1
x[439] 0
x[440] 0
x[441] 0
x[442] 0
x[443] 0
x[444] 0
x[445] 0
x[446] 0
x[447] -1.7499999960257639e-07
x[448] 1
x[449] -4.0662231643021646e-07
x[450] 1
x[451] 1
x[452] 0
x[453] 0
x[454] -2.5000000292152436e-08
x[455] -4.2499999941547628e-07
x[456] 1
x[457] 1
x[458] 1
x[459] 1
x[460] 1
x[461] 0
x[462] 0
x[463] 0
x[464] 1
x[465] 0
x[466] 1
x[467] 0
x[468] 1
x[469] 0
x[470] 1
x[471] 1
x[472] 1
x[473] 9.9999990000000050e-01
x[474] 1
x[475] 0
x[476] 0
x[477] 1
x[478] 0
x[479] 0
x[480] 1
x[481] 1
x[482] 9.9999962098039208e-01
x[483] 9.9999999000000006e-01
x[484] 1.00000013353357
x[485] -1.1608356168577956e-08
x[486] 0
x[487] 0
x[488] 1
x[489] 0
x[490] 1
x[491] 0
x[492] 1
x[493] 0
x[494] 0
x[495] 0
x[496] 0
x[497] 1
x[498] 1
x[499] 1.4993353971189963e-07
x[500] 1
x[501] 1
x[502] 1
x[503] 0
x[504] 2.9967568304139413e-07
x[505] 9.9999998999999806e-01
x[506] -2.5000000186469773e-08
x[507] 9.9999985000000025e-01
x[508] -2.1666666958819102e-08
x[509] 2.7492519855951104e-07
x[510] 0
x[511] 0
x[512] 0
x[513] 1.0000000648671339e+00
x[514] 9.9919514219766465e-08
x[515] 1
x[516] 0
x[517] -2.6999999943891850e-07
x[518] 0
x[519] 1
x[520] 0
x[521] 0
x[522] 0
x[523] 0
x[524] 0
x[525] 0
x[526] 9.9999987499999954e-01
x[527] 0
x[528] 1
x[529] 1
x[530] 1
x[531] -1.3287385425376790e-07
x[532] 9.9999985500000022e-01
x[533] 1
x[534] 1
x[535] 1
x[536] 1
x[537] 0
x[538] 0
x[539] 1
x[540] 1
x[541] 1
x[542] 0
x[543] 0
x[544] 0
x[545] -1.9499999967268422e-07
x[546] 0
x[547] 1
x[548] 0
x[549] 1.7474882799154951e-07
x[550] 9.9999984999999958e-01
x[551] 1
x[552] 1
x[553] 0
x[554] 0
x[555] 1
x[556] 1.4974841574498895e-07
x[557] 1
x[558] 0
x[559] 0
x[560] 1
x[561] 1
x[562] 1.0000004249269834e+00
x[563] 0
x[564] 0
x[565] 1.0000000249499241e+00
x[566] 1
x[567] 1
x[568] 0
x[569] 1
x[570] 1
x[571] 0
x[572] 0
x[573] 1.4981595844866920e-07
x[574] 2.4460392359603194e-08
x[575] 0
x[576] -2.1627252767846914e-08
x[577] 0
x[578] 0
x[579] 9.9999990200160238e-01
x[580] 0
x[581] -3.0436613767333634e-09
x[582] 0
x[583] 9.9999990338402389e-01
x[584] 1
x[585] 1.0000004098763637e+00
x[586] 0
x[587] 1
x[588] 1
x[589] 0
x[590] 0
x[591] 0
x[592] 0
x[593] 1
x[594] 1
x[595] 1
x[596] 0
x[597] -2.5000000292152436e-08
x[598] 1
x[599] 0
x[600] 1
x[601] -2.5000000292152436e-08
x[602] 0
x[603] 0
x[604] 1
x[605] 1
x[606] 1
x[607] 0
x[608] 9.9999973197337544e-01
x[609] 0
x[610] 1
x[611] 1
x[612] 0
x[613] 1
x[614] 1
x[615] 1
x[616] 0
x[617] 1
x[618] 0
x[619] 0
x[620] 0
x[621] 1
x[622] 9.8016347257450950e-09
x[623] 0
x[624] 0
x[625] 0
x[626] 0
x[627] 0
x[628] 0
x[629] 0
x[630] 0
x[631] 1
x[632] 1
x[633] 1
x[634] 0
x[635] 1
x[636] -1.7166666621600717e-07
x[637] 0
x[638] 0
x[639] 0
x[640] 1.4994121328941267e-07
x[641] 0
x[642] 0
x[643] 1
x[644] 0
x[645] 1
x[646] 1.0000004249555743e+00
x[647] 0
x[648] 1
x[649] 1
x[650] 0
x[651] 0
x[652] 0
x[653] 1
x[654] 1
x[655] 1
x[656] 1
x[657] 0
x[658] 1
x[659] 1
x[660] 1.0000001498960955e+00
x[661] 0
x[662] 9.9999985000000025e-01
x[663] -2.1666666958819102e-08
x[664] 1
x[665] 1
x[666] 1
x[667] 0
x[668] 1
x[669] 0
x[670] 0
x[671] 0
x[672] 0
x[673] 1
x[674] 1
x[675] 0
x[676] 1
x[677] 0
x[678] 0
x[679] 0
x[680] 1.0000000248472722e+00
x[681] 0
x[682] 1
x[683] 0
x[684] 0
x[685] 0
x[686] 1
x[687] 1
x[688] 1
x[689] 9.9999973449021240e-01
x[690] 0
x[691] 0
x[692] 9.9999972833333439e-01
x[693] 0
x[694] 1
x[695] 0
x[696] 1
x[697] 0
x[698] 1
x[699] -6.1624752513469531e-08
x[700] 0
x[701] 0
x[702] 0
x[703] 0
x[704] 9.9999990000000016e-01
x[705] 1
x[706] 0
x[707] 0
x[708] 1
x[709] 1
x[710] 1.7479201485382008e-07
x[711] 0
x[712] 1
x[713] 0
x[714] 0
x[715] 0
x[716] 0
x[717] 1.9995880921211478e-07
x[718] 9.9999999575478549e-01
x[719] 1
x[720] 0
x[721] 9.9999980500000041e-01
x[722] 1
x[723] 0
x[724] 1
x[725] 1
x[726] 0
x[727] 0
x[728] 1
x[729] 0
x[730] 0
x[731] 0
x[732] 0
x[733] 1
x[734] 1.7536807024793321e-08
x[735] 1
x[736] 0
x[737] 0
x[738] 1
x[739] 1
x[740] 9.8569642043548730e-09
x[741] 0
x[742] 1
x[743] 0
x[744] 1
x[745] 1
x[746] 1
x[747] 0
x[748] 0
x[749] 1
x[750] 1
x[751] 1
x[752] 1
x[753] 1
x[754] 1
x[755] 1
x[756] 0
x[757] 0
x[758] 1
x[759] 1
x[760] 0
x[761] 1
x[762] 1
x[763] 1
x[764] 0
x[765] 1
x[766] 0
x[767] 0
x[768] 1
x[769] -2.5000000292152436e-08
x[770] 0
x[771] 1
x[772] 0
x[773] 9.9947096906858612e-08
x[774] 0
x[775] -4.0999999947940444e-07
x[776] 0
x[777] 0
x[778] 9.9215501514310964e-08
x[779] 1.0000000062790029e+00
x[780] 0
x[781] 1
x[782] 0
x[783] 1
x[784] 0
x[785] 0
x[786] 0
x[787] 0
x[788] 9.9999980004175615e-01
x[789] 1
x[790] 0
x[791] 0
x[792] 1.0000004099348403e+00
x[793] -2.5000000292152436e-08
x[794] 2.5597997675511549e-07
x[795] 1
x[796] 9.9999989999999994e-01
x[797] 1
x[798] 1
x[799] 0
x[800] 0
x[801] 1
x[802] 0
x[803] 1
x[804] 1
x[805] 1
x[806] 1
x[807] 0
x[808] 1
x[809] 1
x[810] 0
x[811] 1.0000004248854073e+00
x[812] 1
x[813] 1.00000013990774
x[814] 1
x[815] 0
x[816] 0
x[817] 0
x[818] -4.0999999950663835e-07
x[819] 0
x[820] 1
x[821] 0
x[822] 0
x[823] 1
x[824] 1
x[825] 1
x[826] 0
x[827] 3.9974763202440985e-07
x[828] 1
x[829] 9.9999989999999972e-01
x[830] 1
x[831] 1
x[832] 9.9999982500000029e-01
x[833] 1
x[834] 0
x[835] 0
x[836] -3.9999999908703044e-07
x[837] 0
x[838] 0
x[839] 1.0000000249554033e+00
x[840] -2.5000000292152436e-08
x[841] 0
x[842] 9.9999985000000058e-01
x[843] 1
x[844] -4.0999999947940444e-07
x[845] 3.9992739384014887e-07
x[846] 1
x[847] 0
x[848] 0
x[849] 1
x[850] 0
x[851] -5.0000000362260266e-08
x[852] 0
x[853] 0
x[854] -2.5000000292152436e-08
x[855] 1
x[856] 1
x[857] 1.0000000249013830e+00
x[858] 1
x[859] 0
x[860] 0
x[861] 0
x[862] 0
x[863] 0
x[864] 9.98938488430229e-08
x[865] 0
x[866] 0
x[867] 7.4928069850620721e-08
x[868] 0
x[869] 0
x[870] 0
x[871] 0
x[872] 0
x[873] 1.7493752459329319e-07
x[874] 1
x[875] 1
x[876] 0
x[877] 1
x[878] 0
x[879] 0
x[880] 1
x[881] 1.0000001748132699e+00
x[882] 1
x[883] 0
x[884] 9.9999998235294141e-01
x[885] 0
x[886] 1
x[887] 1
x[888] 1
x[889] 0
x[890] 0
x[891] 0
x[892] 0
x[893] 1
x[894] 0
x[895] 1
x[896] 1
x[897] 0
x[898] 1
x[899] 1
x[900] 9.9999960340593952e-01
x[901] 0
x[902] 1
x[903] 1
x[904] 1
x[905] 1
x[906] 9.9891803387850979e-08
x[907] 0
x[908] 0
x[909] 1
x[910] -2.5000000292152436e-08
x[911] 1.0000001749580381e+00
x[912] 1
x[913] 1
x[914] 0
x[915] 0
x[916] 1
x[917] 1
x[918] 1
x[919] 0
x[920] 1
x[921] 1
x[922] 0
x[923] 0
x[924] -4.2005216631430463e-07
x[925] 1.4995614570524640e-07
x[926] 0
x[927] 0
x[928] 1
x[929] 1
x[930] 9.9927517071800020e-08
x[931] 0
x[932] 0
x[933] 0
x[934] 0
x[935] 1
x[936] 0
x[937] 1
x[938] 1
x[939] 0
x[940] 0
x[941] 0
x[942] 0
x[943] 1
x[944] 1
x[945] 0
x[946] 1.4989770237554877e-07
x[947] 0
x[948] 0
x[949] 0
x[950] 1
x[951] 1.0000001639185758e+00
x[952] 0
x[953] 9.9999999000000006e-01
x[954] -1.7499999954934172e-07
x[955] 0
x[956] 0
x[957] 1
x[958] 1
x[959] 0
x[960] 1
x[961] 1
x[962] 1
x[963] 9.9999985333333319e-01
x[964] 1
x[965] 1
x[966] 0
x[967] 9.9999987961770664e-01
x[968] 1
x[969] 1.0000002974329207e+00
x[970] 0
x[971] 9.9999970000000094e-01
x[972] 2.6872334621849009e-07
x[973] 1
x[974] 9.9924598519339525e-08
x[975] 0
x[976] 1
x[977] 1
x[978] 1.4995577344958970e-07
x[979] 0
x[980] 0
x[981] 9.9999990114403881e-01
x[982] 1
x[983] 0
x[984] 1
x[985] 1
x[986] 1
x[987] 1.0000000998933083e+00
x[988] 1
x[989] 1
x[990] 1
x[991] 1
x[992] 1
x[993] 1
x[994] 0
x[995] 1
x[996] 1
x[997] 0
x[998] 1
x[999] 0
